
;this file is automatically generated: Wed Feb 26 14:38:42 CST 2020

;declarations generated

(declare-fun oclExcludes ( Int Int) Bool)
(declare-fun class9_Class9BoolAttr0 ( Int) Bool)
(declare-fun obj_62c1b51c_bcea_40c7_94ec_cf73f3051986 ( Int) Int)
(declare-fun Cardinality ( Int) Int)
(declare-fun oclSelect ( Int Bool) Int)
(declare-fun type_75efda1e_d0b7_47d6_b129_4a1073830847_Class9 ( Int) Bool)
(declare-fun Enum0 ( Int) Int)
(declare-fun Enum1 ( Int) Int)
(declare-fun container_ ( Int) Int)
(declare-fun oclIncludes ( Int Int) Bool)
(declare-fun ObjAt ( Int Int) Int)

;formula(s) generated
(assert (! (forall ((v Int)) (=> ( type_75efda1e_d0b7_47d6_b129_4a1073830847_Class9 v )  (not ( class9_Class9BoolAttr0 ( obj_62c1b51c_bcea_40c7_94ec_cf73f3051986 v )  )  ))):named l0))
(assert (exists ((o Int)) ( type_75efda1e_d0b7_47d6_b129_4a1073830847_Class9 ( obj_62c1b51c_bcea_40c7_94ec_cf73f3051986 o )  ) ))

 ;end of formula 